-99 -99 -99 -99 -99 -99 -99 -99 -99 -99 -99 -99 -99 000 000 -99 -99 -99 -99 000 -99 -99 -99 -99 000 000 000 -99 000 000 000
-99 -99 000 -99 -99 -99 000 000 -99 -99 -99 -99 -99 000 000 -99 -99 -99 -99 000 000 -99 -99 -99 -99 000 000 000 000 000 000
000 000 000 000 000 -99 000 000 000 000 -99 -99 -99 -99 000 000 -99 -99 -99 -99 -99 -99 -99 -99 -99 000 000 000 000 -99 000
000 000 000 000 000 000 000 000 000 000 -99 -99 000 -99 000 000 -99 -99 -99 -99 -99 -99 -99 -99 -99 000 000 000 000 -99 -99
000 000 000 000 000 000 000 000 000 000 -99 -99 000 000 000 000 000 -99 -99 -99 -99 -99 -99 -99 000 000 000 000 000 -99 -99
000 000 000 000 000 000 000 000 000 000 -99 -99 000 000 000 000 000 -99 -99 -99 000 -99 000 000 000 000 000 000 000 -99 -99
000 000 -99 000 000 000 000 000 000 -99 -99 -99 -99 000 000 000 000 -99 -99 -99 -99 -99 000 000 000 000 000 -99 -99 -99 -99
000 000 000 000 000 000 000 000 000 -99 -99 -99 -99 -99 -99 000 000 -99 -99 -99 -99 000 -99 000 000 000 -99 -99 -99 000 -99
000 000 000 000 000 000 000 000 000 000 -99 -99 -99 -99 -99 -99 -99 000 -99 -99 -99 000 000 000 000 000 -99 -99 -99 000 000
000 000 000 000 000 000 000 000 000 000 -99 -99 -99 -99 -99 -99 -99 -99 000 -99 -99 000 000 -99 -99 -99 000 000 000 000 000
000 000 000 000 000 000 000 000 000 000 000 000 000 -99 -99 -99 -99 -99 000 -99 -99 000 000 000 000 000 000 000 000 000 000
000 000 000 000 000 000 000 000 000 -99 000 000 000 -99 -99 000 000 000 000 000 -99 -99 000 000 000 000 000 000 000 000 000
000 000 000 000 000 000 000 000 000 -99 000 000 000 -99 -99 000 000 000 000 -99 -99 -99 -99 000 000 000 000 000 000 000 000
000 000 000 000 000 000 000 000 -99 -99 -99 000 000 -99 -99 -99 000 000 000 -99 -99 -99 000 000 000 000 000 000 -99 000 000
000 000 000 000 000 000 000 000 -99 -99 -99 -99 -99 -99 -99 -99 -99 000 -99 -99 -99 -99 000 -99 000 000 000 000 000 000 000
000 000 000 000 000 000 000 000 -99 -99 -99 -99 -99 000 -99 -99 -99 -99 -99 -99 -99 -99 000 000 000 000 -99 000 000 000 000
000 -99 -99 -99 000 000 000 000 -99 -99 -99 -99 -99 000 000 -99 -99 -99 -99 -99 -99 -99 000 000 000 000 000 -99 000 000 000
000 000 000 -99 -99 000 000 000 000 -99 -99 -99 -99 000 000 -99 000 000 -99 -99 -99 -99 000 -99 -99 000 -99 -99 000 000 000
000 000 000 -99 -99 -99 -99 000 000 -99 -99 -99 -99 -99 -99 -99 000 000 -99 -99 -99 -99 000 000 000 -99 000 -99 000 000 000
000 000 000 000 -99 -99 000 000 -99 -99 -99 -99 -99 -99 -99 -99 000 000 -99 -99 -99 -99 000 -99 -99 -99 -99 -99 -99 -99 -99
000 000 000 000 000 000 000 000 -99 -99 -99 -99 -99 -99 -99 -99 000 000 000 -99 -99 -99 -99 -99 -99 -99 -99 -99 -99 -99 -99
000 000 000 000 000 000 000 -99 -99 -99 -99 -99 -99 -99 -99 -99 000 000 -99 000 -99 -99 000 -99 -99 -99 -99 -99 -99 -99 -99
-99 000 000 000 000 000 000 000 -99 -99 -99 -99 -99 000 000 000 000 000 000 000 000 -99 000 -99 -99 -99 -99 -99 -99 -99 -99
000 000 000 000 000 -99 000 000 000 -99 -99 -99 000 000 000 000 000 000 000 000 000 000 000 -99 -99 -99 -99 -99 -99 -99 -99
000 000 000 000 000 000 -99 000 000 000 -99 -99 -99 000 000 000 000 000 000 000 000 000 -99 -99 -99 -99 -99 -99 -99 -99 -99
-99 -99 -99 000 000 000 -99 000 000 000 000 -99 -99 000 000 000 000 000 -99 000 000 -99 -99 -99 -99 -99 -99 -99 -99 -99 -99
000 000 000 000 000 000 000 000 000 001 000 -99 -99 -99 000 000 000 000 000 000 000 000 -99 -99 -99 -99 -99 -99 -99 -99 000
000 000 000 000 000 000 000 000 000 001 000 -99 -99 -99 000 000 000 000 -99 -99 000 000 -99 -99 -99 -99 -99 -99 -99 -99 000
000 001 000 000 000 000 000 000 000 000 000 -99 -99 -99 000 000 000 000 000 -99 -99 000 -99 -99 -99 -99 -99 -99 -99 -99 000
001 000 000 000 000 000 000 000 000 000 000 -99 -99 000 000 000 000 000 000 000 -99 000 -99 -99 -99 000 -99 -99 -99 -99 -99
000 000 000 001 001 000 000 000 000 000 000 -99 -99 000 000 000 000 000 000 000 -99 000 -99 000 000 000 000 -99 -99 -99 -99
000 001 001 001 007 002 000 000 000 -99 -99 -99 -99 000 -99 -99 000 000 000 -99 -99 000 000 000 000 000 000 -99 -99 -99 -99
000 001 000 002 001 001 000 000 000 -99 -99 -99 -99 000 000 000 000 000 000 -99 -99 000 000 000 000 -99 -99 -99 000 -99 000
000 000 000 003 000 000 000 000 000 -99 -99 -99 -99 000 000 000 000 000 000 -99 000 000 000 000 -99 -99 -99 000 000 -99 000
000 000 000 000 000 000 000 000 -99 -99 -99 -99 -99 000 000 000 000 000 000 000 000 000 000 000 000 -99 -99 000 000 -99 000
000 000 000 000 000 000 -99 000 000 -99 -99 -99 000 000 000 001 000 000 000 000 000 000 000 000 000 -99 -99 000 000 -99 000
000 000 -99 -99 000 -99 -99 000 -99 -99 -99 000 000 000 000 000 000 000 000 000 000 000 000 000 000 000 000 000 -99 -99 -99
000 -99 000 000 000 000 -99 000 -99 -99 -99 000 000 000 000 000 000 000 000 000 000 000 000 000 000 000 -99 -99 -99 -99 -99
000 000 000 000 000 000 -99 -99 -99 -99 -99 000 000 000 000 000 000 000 000 000 000 000 000 000 000 000 -99 -99 -99 -99 -99
000 -99 000 000 -99 -99 -99 -99 -99 -99 -99 000 000 -99 -99 -99 000 000 000 000 000 000 000 000 000 000 000 -99 -99 -99 -99
-99 -99 000 000 -99 -99 -99 -99 -99 000 000 000 000 -99 -99 -99 -99 -99 000 000 000 000 000 000 000 000 000 -99 -99 -99 -99
000 000 -99 000 -99 -99 000 000 000 000 000 000 000 000 -99 -99 -99 -99 000 000 000 -99 -99 000 000 -99 -99 -99 -99 -99 -99
000 000 -99 -99 000 000 -99 000 000 000 000 000 000 000 -99 000 000 -99 -99 000 -99 -99 -99 -99 000 -99 -99 -99 -99 -99 -99
000 -99 -99 -99 -99 000 000 000 000 000 000 000 000 000 000 000 000 -99 000 000 000 -99 -99 -99 000 -99 -99 -99 -99 -99 -99
000 -99 -99 -99 -99 000 001 002 001 000 000 000 000 000 000 000 000 -99 000 000 000 -99 -99 -99 -99 -99 -99 -99 -99 -99 -99
-99 -99 -99 -99 -99 000 003 005 001 000 000 000 000 001 000 000 000 001 001 000 000 -99 -99 000 -99 -99 -99 -99 -99 -99 000
000 -99 -99 -99 000 000 003 002 000 000 000 000 000 004 000 000 000 001 011 000 000 000 000 000 -99 -99 -99 -99 -99 -99 -99
000 -99 -99 000 000 001 001 001 000 000 000 000 001 004 002 001 000 004 001 000 003 002 000 000 -99 -99 -99 -99 -99 -99 -99
000 -99 000 000 000 003 003 001 000 000 000 000 003 003 003 001 002 003 000 000 000 000 001 001 -99 -99 -99 -99 000 -99 -99
000 000 000 000 001 005 002 000 000 000 000 000 000 002 001 001 002 001 000 000 000 000 000 -99 -99 -99 -99 000 -99 -99 -99
000 000 000 000 000 001 000 000 000 000 000 000 000 001 000 000 000 000 000 000 000 000 -99 -99 -99 -99 -99 -99 -99 -99 -99
000 000 000 000 000 000 000 000 -99 -99 -99 000 000 000 000 000 000 000 000 000 000 -99 -99 -99 -99 -99 -99 -99 -99 -99 -99
000 000 000 000 000 000 000 000 -99 -99 -99 -99 -99 -99 -99 000 000 000 000 000 000 000 -99 -99 -99 -99 -99 -99 -99 -99 -99
000 000 001 000 -99 -99 000 -99 -99 -99 -99 -99 -99 -99 -99 000 000 000 000 000 000 -99 -99 -99 -99 -99 -99 -99 -99 -99 -99
000 001 000 000 -99 000 -99 -99 -99 -99 -99 -99 -99 -99 -99 000 000 000 000 000 000 -99 -99 -99 -99 -99 -99 -99 -99 -99 -99
